70
1 0 10
2 0 19
2 1 6
3 0 17
3 1 1
3 2 15
4 0 1
4 1 8
4 2 16
4 3 5
5 0 7
5 1 10
5 2 18
5 3 16
5 4 8
6 0 4
6 1 13
6 2 1
6 3 4
6 4 19
6 5 15
7 0 1
7 1 16
7 2 18
7 3 10
7 4 1
7 5 11
7 6 15
8 0 4
8 1 17
8 2 14
8 3 15
8 4 9
8 5 12
8 6 18
8 7 17
9 0 14
9 1 13
9 2 2
9 3 4
9 4 19
9 5 12
9 6 14
9 7 7
9 8 18
10 0 12
10 1 19
10 2 14
10 3 7
10 4 20
10 5 5
10 6 19
10 7 7
10 8 14
10 9 3
11 0 20
11 1 8
11 2 9
11 3 15
11 4 8
11 5 2
11 6 4
11 7 10
11 8 12
11 9 12
11 10 13
12 0 5
12 1 14
12 2 15
12 3 16
12 4 7
12 5 6
12 6 9
12 7 14
12 8 20
12 9 5
12 10 9
12 11 19
13 0 20
13 1 8
13 2 18
13 3 9
13 4 12
13 5 14
13 6 8
13 7 3
13 8 1
13 9 3
13 10 10
13 11 12
13 12 2
14 0 17
14 1 18
14 2 4
14 3 11
14 4 14
14 5 7
14 6 9
14 7 8
14 8 10
14 9 11
14 10 7
14 11 14
14 12 16
14 13 4
15 0 10
15 1 14
15 2 14
15 3 8
15 4 12
15 5 15
15 6 5
15 7 12
15 8 16
15 9 13
15 10 7
15 11 12
15 12 18
15 13 6
15 14 14
16 0 9
16 1 15
16 2 19
16 3 12
16 4 2
16 5 7
16 6 12
16 7 3
16 8 3
16 9 2
16 10 18
16 11 13
16 12 2
16 13 9
16 14 18
16 15 1
17 0 1
17 1 7
17 2 15
17 3 4
17 4 12
17 5 2
17 6 16
17 7 8
17 8 6
17 9 17
17 10 10
17 11 18
17 12 4
17 13 1
17 14 12
17 15 11
17 16 8
18 0 3
18 1 9
18 2 8
18 3 15
18 4 15
18 5 3
18 6 15
18 7 13
18 8 4
18 9 18
18 10 16
18 11 9
18 12 14
18 13 14
18 14 5
18 15 13
18 16 6
18 17 18
19 0 3
19 1 5
19 2 11
19 3 9
19 4 19
19 5 14
19 6 18
19 7 1
19 8 14
19 9 18
19 10 3
19 11 18
19 12 16
19 13 19
19 14 14
19 15 9
19 16 7
19 17 17
19 18 15
20 0 6
20 1 14
20 2 17
20 3 9
20 4 9
20 5 5
20 6 17
20 7 20
20 8 4
20 9 19
20 10 19
20 11 1
20 12 13
20 13 6
20 14 17
20 15 1
20 16 13
20 17 13
20 18 8
20 19 19
21 0 20
21 1 6
21 2 2
21 3 16
21 4 9
21 5 5
21 6 12
21 7 16
21 8 15
21 9 2
21 10 8
21 11 14
21 12 19
21 13 19
21 14 5
21 15 7
21 16 11
21 17 17
21 18 15
21 19 19
21 20 16
22 0 18
22 1 3
22 2 11
22 3 13
22 4 9
22 5 12
22 6 10
22 7 6
22 8 11
22 9 3
22 10 16
22 11 4
22 12 16
22 13 1
22 14 3
22 15 18
22 16 2
22 17 12
22 18 15
22 19 6
22 20 15
22 21 10
23 0 9
23 1 2
23 2 4
23 3 1
23 4 16
23 5 8
23 6 6
23 7 19
23 8 16
23 9 11
23 10 10
23 11 19
23 12 9
23 13 15
23 14 5
23 15 8
23 16 5
23 17 11
23 18 12
23 19 18
23 20 10
23 21 14
23 22 17
24 0 2
24 1 18
24 2 12
24 3 16
24 4 5
24 5 11
24 6 5
24 7 12
24 8 11
24 9 6
24 10 18
24 11 9
24 12 6
24 13 15
24 14 9
24 15 5
24 16 1
24 17 18
24 18 2
24 19 15
24 20 11
24 21 20
24 22 20
24 23 12
25 0 19
25 1 15
25 2 10
25 3 7
25 4 20
25 5 18
25 6 19
25 7 3
25 8 15
25 9 10
25 10 13
25 11 9
25 12 2
25 13 11
25 14 6
25 15 8
25 16 9
25 17 5
25 18 14
25 19 10
25 20 19
25 21 20
25 22 13
25 23 12
25 24 5
26 0 11
26 1 20
26 2 13
26 3 1
26 4 11
26 5 2
26 6 10
26 7 2
26 8 4
26 9 18
26 10 14
26 11 7
26 12 10
26 13 19
26 14 20
26 15 15
26 16 6
26 17 20
26 18 12
26 19 20
26 20 1
26 21 12
26 22 10
26 23 15
26 24 20
26 25 9
27 0 16
27 1 3
27 2 14
27 3 11
27 4 6
27 5 15
27 6 6
27 7 15
27 8 19
27 9 7
27 10 6
27 11 6
27 12 14
27 13 17
27 14 2
27 15 19
27 16 6
27 17 12
27 18 1
27 19 6
27 20 3
27 21 9
27 22 17
27 23 17
27 24 18
27 25 7
27 26 2
28 0 2
28 1 4
28 2 13
28 3 9
28 4 13
28 5 1
28 6 6
28 7 1
28 8 10
28 9 20
28 10 13
28 11 2
28 12 2
28 13 15
28 14 12
28 15 18
28 16 15
28 17 4
28 18 11
28 19 2
28 20 10
28 21 9
28 22 5
28 23 2
28 24 11
28 25 8
28 26 14
28 27 12
29 0 10
29 1 13
29 2 2
29 3 18
29 4 12
29 5 9
29 6 9
29 7 6
29 8 14
29 9 16
29 10 6
29 11 19
29 12 15
29 13 14
29 14 11
29 15 11
29 16 2
29 17 6
29 18 1
29 19 4
29 20 10
29 21 2
29 22 20
29 23 11
29 24 8
29 25 14
29 26 17
29 27 17
29 28 5
30 0 2
30 1 6
30 2 15
30 3 14
30 4 11
30 5 4
30 6 14
30 7 20
30 8 12
30 9 8
30 10 19
30 11 16
30 12 3
30 13 13
30 14 14
30 15 13
30 16 9
30 17 3
30 18 13
30 19 5
30 20 10
30 21 8
30 22 15
30 23 15
30 24 2
30 25 16
30 26 3
30 27 7
30 28 8
30 29 3
31 0 13
31 1 2
31 2 20
31 3 19
31 4 13
31 5 17
31 6 9
31 7 9
31 8 7
31 9 6
31 10 19
31 11 1
31 12 18
31 13 6
31 14 8
31 15 12
31 16 13
31 17 14
31 18 17
31 19 16
31 20 13
31 21 15
31 22 13
31 23 19
31 24 11
31 25 20
31 26 6
31 27 6
31 28 11
31 29 8
31 30 9
32 0 3
32 1 13
32 2 1
32 3 19
32 4 8
32 5 15
32 6 18
32 7 15
32 8 15
32 9 19
32 10 1
32 11 9
32 12 7
32 13 9
32 14 17
32 15 16
32 16 6
32 17 14
32 18 20
32 19 19
32 20 12
32 21 10
32 22 9
32 23 1
32 24 11
32 25 15
32 26 3
32 27 15
32 28 16
32 29 5
32 30 15
32 31 19
33 0 9
33 1 11
33 2 14
33 3 5
33 4 14
33 5 20
33 6 15
33 7 6
33 8 8
33 9 11
33 10 2
33 11 8
33 12 16
33 13 9
33 14 9
33 15 19
33 16 1
33 17 6
33 18 20
33 19 15
33 20 8
33 21 11
33 22 7
33 23 13
33 24 2
33 25 3
33 26 14
33 27 2
33 28 15
33 29 19
33 30 5
33 31 18
33 32 6
34 0 6
34 1 1
34 2 12
34 3 9
34 4 11
34 5 8
34 6 18
34 7 2
34 8 15
34 9 2
34 10 2
34 11 12
34 12 19
34 13 13
34 14 16
34 15 5
34 16 14
34 17 20
34 18 14
34 19 2
34 20 5
34 21 8
34 22 16
34 23 8
34 24 2
34 25 19
34 26 7
34 27 19
34 28 7
34 29 7
34 30 14
34 31 14
34 32 11
34 33 2
35 0 13
35 1 12
35 2 10
35 3 19
35 4 1
35 5 1
35 6 8
35 7 9
35 8 6
35 9 17
35 10 16
35 11 17
35 12 20
35 13 16
35 14 18
35 15 2
35 16 16
35 17 15
35 18 16
35 19 18
35 20 17
35 21 10
35 22 18
35 23 1
35 24 9
35 25 11
35 26 16
35 27 5
35 28 20
35 29 12
35 30 10
35 31 14
35 32 15
35 33 20
35 34 11
36 0 17
36 1 11
36 2 8
36 3 5
36 4 14
36 5 6
36 6 13
36 7 6
36 8 3
36 9 15
36 10 2
36 11 5
36 12 9
36 13 17
36 14 14
36 15 15
36 16 10
36 17 15
36 18 14
36 19 13
36 20 5
36 21 17
36 22 8
36 23 1
36 24 2
36 25 3
36 26 4
36 27 9
36 28 15
36 29 7
36 30 7
36 31 11
36 32 20
36 33 4
36 34 1
36 35 12
37 0 6
37 1 1
37 2 6
37 3 18
37 4 17
37 5 7
37 6 5
37 7 18
37 8 7
37 9 5
37 10 14
37 11 14
37 12 10
37 13 15
37 14 18
37 15 14
37 16 19
37 17 8
37 18 20
37 19 14
37 20 5
37 21 2
37 22 16
37 23 10
37 24 11
37 25 18
37 26 8
37 27 6
37 28 1
37 29 9
37 30 20
37 31 19
37 32 3
37 33 5
37 34 8
37 35 17
37 36 6
38 0 18
38 1 6
38 2 16
38 3 8
38 4 12
38 5 7
38 6 20
38 7 17
38 8 2
38 9 12
38 10 13
38 11 20
38 12 17
38 13 18
38 14 20
38 15 5
38 16 17
38 17 7
38 18 5
38 19 13
38 20 10
38 21 1
38 22 2
38 23 8
38 24 19
38 25 11
38 26 13
38 27 12
38 28 18
38 29 3
38 30 17
38 31 6
38 32 1
38 33 3
38 34 2
38 35 17
38 36 12
38 37 15
39 0 6
39 1 9
39 2 12
39 3 1
39 4 11
39 5 16
39 6 8
39 7 13
39 8 9
39 9 3
39 10 4
39 11 3
39 12 6
39 13 6
39 14 8
39 15 15
39 16 8
39 17 8
39 18 8
39 19 5
39 20 11
39 21 11
39 22 14
39 23 4
39 24 12
39 25 2
39 26 9
39 27 20
39 28 16
39 29 9
39 30 7
39 31 4
39 32 6
39 33 3
39 34 10
39 35 10
39 36 20
39 37 6
39 38 13
40 0 20
40 1 10
40 2 9
40 3 8
40 4 10
40 5 1
40 6 8
40 7 17
40 8 4
40 9 10
40 10 12
40 11 20
40 12 7
40 13 16
40 14 14
40 15 3
40 16 5
40 17 14
40 18 13
40 19 11
40 20 5
40 21 14
40 22 16
40 23 5
40 24 17
40 25 7
40 26 3
40 27 15
40 28 7
40 29 10
40 30 10
40 31 19
40 32 2
40 33 5
40 34 9
40 35 15
40 36 7
40 37 9
40 38 15
40 39 9
41 0 18
41 1 4
41 2 15
41 3 8
41 4 13
41 5 3
41 6 14
41 7 15
41 8 15
41 9 3
41 10 13
41 11 4
41 12 20
41 13 12
41 14 9
41 15 10
41 16 6
41 17 4
41 18 18
41 19 1
41 20 5
41 21 3
41 22 3
41 23 6
41 24 14
41 25 19
41 26 9
41 27 6
41 28 18
41 29 6
41 30 4
41 31 5
41 32 6
41 33 11
41 34 2
41 35 18
41 36 18
41 37 2
41 38 4
41 39 20
41 40 8
42 0 17
42 1 18
42 2 7
42 3 14
42 4 7
42 5 1
42 6 18
42 7 10
42 8 8
42 9 7
42 10 4
42 11 4
42 12 10
42 13 9
42 14 16
42 15 3
42 16 15
42 17 13
42 18 13
42 19 10
42 20 5
42 21 17
42 22 1
42 23 12
42 24 6
42 25 7
42 26 11
42 27 15
42 28 3
42 29 3
42 30 18
42 31 2
42 32 12
42 33 3
42 34 14
42 35 17
42 36 7
42 37 12
42 38 9
42 39 18
42 40 7
42 41 3
43 0 2
43 1 17
43 2 20
43 3 12
43 4 9
43 5 14
43 6 7
43 7 11
43 8 4
43 9 17
43 10 7
43 11 1
43 12 2
43 13 7
43 14 13
43 15 2
43 16 12
43 17 3
43 18 11
43 19 17
43 20 14
43 21 5
43 22 11
43 23 11
43 24 7
43 25 15
43 26 3
43 27 9
43 28 20
43 29 15
43 30 13
43 31 16
43 32 1
43 33 13
43 34 15
43 35 11
43 36 17
43 37 14
43 38 15
43 39 19
43 40 7
43 41 5
43 42 14
44 0 14
44 1 19
44 2 5
44 3 1
44 4 16
44 5 3
44 6 5
44 7 2
44 8 4
44 9 6
44 10 17
44 11 17
44 12 14
44 13 8
44 14 17
44 15 6
44 16 11
44 17 17
44 18 2
44 19 17
44 20 16
44 21 12
44 22 17
44 23 2
44 24 13
44 25 12
44 26 11
44 27 15
44 28 4
44 29 13
44 30 12
44 31 20
44 32 7
44 33 18
44 34 11
44 35 12
44 36 19
44 37 17
44 38 14
44 39 14
44 40 14
44 41 6
44 42 10
44 43 7
45 0 15
45 1 14
45 2 18
45 3 13
45 4 13
45 5 11
45 6 2
45 7 2
45 8 13
45 9 3
45 10 16
45 11 7
45 12 3
45 13 6
45 14 19
45 15 14
45 16 6
45 17 17
45 18 14
45 19 8
45 20 9
45 21 17
45 22 1
45 23 19
45 24 5
45 25 11
45 26 16
45 27 20
45 28 18
45 29 6
45 30 17
45 31 6
45 32 12
45 33 8
45 34 19
45 35 9
45 36 6
45 37 6
45 38 2
45 39 16
45 40 6
45 41 13
45 42 1
45 43 9
45 44 6
46 0 17
46 1 3
46 2 20
46 3 4
46 4 6
46 5 7
46 6 1
46 7 6
46 8 14
46 9 8
46 10 14
46 11 16
46 12 19
46 13 14
46 14 1
46 15 2
46 16 17
46 17 11
46 18 17
46 19 3
46 20 15
46 21 17
46 22 13
46 23 4
46 24 20
46 25 14
46 26 8
46 27 1
46 28 5
46 29 10
46 30 11
46 31 5
46 32 9
46 33 1
46 34 2
46 35 13
46 36 14
46 37 9
46 38 14
46 39 8
46 40 4
46 41 1
46 42 7
46 43 4
46 44 6
46 45 7
47 0 1
47 1 20
47 2 18
47 3 9
47 4 18
47 5 4
47 6 12
47 7 19
47 8 17
47 9 5
47 10 11
47 11 2
47 12 14
47 13 17
47 14 17
47 15 11
47 16 14
47 17 11
47 18 20
47 19 6
47 20 15
47 21 14
47 22 15
47 23 4
47 24 10
47 25 11
47 26 13
47 27 12
47 28 14
47 29 16
47 30 19
47 31 18
47 32 17
47 33 11
47 34 10
47 35 16
47 36 13
47 37 19
47 38 4
47 39 11
47 40 12
47 41 12
47 42 12
47 43 3
47 44 20
47 45 7
47 46 20
48 0 8
48 1 10
48 2 3
48 3 18
48 4 10
48 5 20
48 6 12
48 7 16
48 8 8
48 9 10
48 10 19
48 11 6
48 12 19
48 13 13
48 14 14
48 15 2
48 16 15
48 17 16
48 18 3
48 19 9
48 20 8
48 21 6
48 22 18
48 23 14
48 24 3
48 25 7
48 26 2
48 27 6
48 28 9
48 29 5
48 30 6
48 31 5
48 32 18
48 33 18
48 34 10
48 35 12
48 36 7
48 37 12
48 38 2
48 39 12
48 40 7
48 41 10
48 42 10
48 43 7
48 44 6
48 45 18
48 46 20
48 47 8
49 0 14
49 1 3
49 2 18
49 3 2
49 4 12
49 5 12
49 6 20
49 7 20
49 8 4
49 9 2
49 10 2
49 11 18
49 12 12
49 13 1
49 14 5
49 15 1
49 16 20
49 17 11
49 18 16
49 19 7
49 20 16
49 21 15
49 22 12
49 23 15
49 24 3
49 25 9
49 26 15
49 27 6
49 28 7
49 29 6
49 30 2
49 31 14
49 32 1
49 33 1
49 34 12
49 35 16
49 36 16
49 37 14
49 38 1
49 39 2
49 40 14
49 41 18
49 42 19
49 43 9
49 44 6
49 45 5
49 46 4
49 47 4
49 48 17
50 0 15
50 1 2
50 2 16
50 3 5
50 4 18
50 5 3
50 6 11
50 7 16
50 8 8
50 9 3
50 10 15
50 11 14
50 12 19
50 13 10
50 14 11
50 15 19
50 16 17
50 17 2
50 18 13
50 19 3
50 20 12
50 21 12
50 22 5
50 23 2
50 24 10
50 25 18
50 26 6
50 27 13
50 28 10
50 29 8
50 30 15
50 31 15
50 32 20
50 33 10
50 34 15
50 35 13
50 36 2
50 37 18
50 38 11
50 39 11
50 40 18
50 41 7
50 42 2
50 43 12
50 44 12
50 45 5
50 46 1
50 47 8
50 48 19
50 49 7
51 0 4
51 1 4
51 2 20
51 3 5
51 4 20
51 5 10
51 6 3
51 7 7
51 8 18
51 9 1
51 10 18
51 11 16
51 12 9
51 13 12
51 14 10
51 15 6
51 16 12
51 17 14
51 18 19
51 19 18
51 20 5
51 21 15
51 22 16
51 23 3
51 24 1
51 25 10
51 26 4
51 27 2
51 28 7
51 29 6
51 30 10
51 31 10
51 32 20
51 33 11
51 34 14
51 35 14
51 36 8
51 37 17
51 38 5
51 39 20
51 40 11
51 41 12
51 42 18
51 43 17
51 44 10
51 45 16
51 46 4
51 47 4
51 48 4
51 49 20
51 50 2
52 0 12
52 1 15
52 2 2
52 3 16
52 4 13
52 5 10
52 6 16
52 7 18
52 8 9
52 9 6
52 10 19
52 11 18
52 12 4
52 13 8
52 14 10
52 15 11
52 16 20
52 17 7
52 18 2
52 19 16
52 20 1
52 21 15
52 22 20
52 23 12
52 24 20
52 25 3
52 26 13
52 27 19
52 28 5
52 29 11
52 30 1
52 31 17
52 32 15
52 33 7
52 34 2
52 35 5
52 36 12
52 37 17
52 38 10
52 39 6
52 40 15
52 41 5
52 42 16
52 43 11
52 44 12
52 45 20
52 46 16
52 47 19
52 48 14
52 49 5
52 50 6
52 51 8
53 0 7
53 1 3
53 2 2
53 3 13
53 4 13
53 5 9
53 6 5
53 7 11
53 8 5
53 9 3
53 10 15
53 11 2
53 12 12
53 13 7
53 14 14
53 15 15
53 16 10
53 17 1
53 18 17
53 19 9
53 20 9
53 21 12
53 22 19
53 23 12
53 24 14
53 25 11
53 26 2
53 27 9
53 28 19
53 29 17
53 30 16
53 31 10
53 32 8
53 33 20
53 34 11
53 35 17
53 36 8
53 37 16
53 38 17
53 39 6
53 40 16
53 41 20
53 42 5
53 43 13
53 44 6
53 45 11
53 46 17
53 47 14
53 48 10
53 49 20
53 50 18
53 51 8
53 52 5
54 0 9
54 1 3
54 2 6
54 3 5
54 4 7
54 5 17
54 6 12
54 7 14
54 8 14
54 9 8
54 10 7
54 11 14
54 12 20
54 13 9
54 14 16
54 15 4
54 16 15
54 17 18
54 18 11
54 19 10
54 20 1
54 21 4
54 22 19
54 23 12
54 24 20
54 25 12
54 26 2
54 27 19
54 28 5
54 29 8
54 30 14
54 31 6
54 32 6
54 33 18
54 34 20
54 35 2
54 36 5
54 37 14
54 38 7
54 39 16
54 40 19
54 41 10
54 42 13
54 43 18
54 44 17
54 45 2
54 46 11
54 47 7
54 48 8
54 49 7
54 50 9
54 51 1
54 52 20
54 53 18
55 0 1
55 1 10
55 2 12
55 3 1
55 4 3
55 5 5
55 6 14
55 7 2
55 8 4
55 9 7
55 10 15
55 11 14
55 12 13
55 13 8
55 14 18
55 15 9
55 16 19
55 17 4
55 18 19
55 19 7
55 20 20
55 21 15
55 22 16
55 23 8
55 24 5
55 25 19
55 26 7
55 27 12
55 28 14
55 29 8
55 30 15
55 31 12
55 32 16
55 33 2
55 34 15
55 35 14
55 36 17
55 37 3
55 38 6
55 39 18
55 40 16
55 41 14
55 42 19
55 43 4
55 44 9
55 45 10
55 46 13
55 47 9
55 48 10
55 49 4
55 50 19
55 51 1
55 52 16
55 53 11
55 54 10
56 0 20
56 1 15
56 2 15
56 3 4
56 4 15
56 5 17
56 6 19
56 7 4
56 8 7
56 9 17
56 10 15
56 11 2
56 12 11
56 13 16
56 14 18
56 15 10
56 16 17
56 17 17
56 18 14
56 19 11
56 20 7
56 21 11
56 22 7
56 23 4
56 24 8
56 25 10
56 26 9
56 27 12
56 28 14
56 29 12
56 30 1
56 31 11
56 32 6
56 33 9
56 34 12
56 35 4
56 36 17
56 37 9
56 38 14
56 39 1
56 40 8
56 41 2
56 42 8
56 43 3
56 44 4
56 45 13
56 46 8
56 47 5
56 48 11
56 49 1
56 50 12
56 51 3
56 52 9
56 53 11
56 54 12
56 55 4
57 0 18
57 1 15
57 2 1
57 3 16
57 4 15
57 5 4
57 6 15
57 7 5
57 8 15
57 9 14
57 10 6
57 11 19
57 12 18
57 13 8
57 14 10
57 15 2
57 16 8
57 17 11
57 18 11
57 19 17
57 20 4
57 21 19
57 22 6
57 23 6
57 24 3
57 25 20
57 26 18
57 27 20
57 28 10
57 29 9
57 30 13
57 31 19
57 32 6
57 33 15
57 34 1
57 35 6
57 36 1
57 37 17
57 38 19
57 39 2
57 40 20
57 41 14
57 42 1
57 43 20
57 44 2
57 45 11
57 46 18
57 47 4
57 48 7
57 49 15
57 50 12
57 51 7
57 52 19
57 53 15
57 54 2
57 55 1
57 56 8
58 0 15
58 1 9
58 2 14
58 3 6
58 4 3
58 5 18
58 6 19
58 7 20
58 8 11
58 9 4
58 10 6
58 11 17
58 12 3
58 13 3
58 14 11
58 15 17
58 16 20
58 17 7
58 18 13
58 19 20
58 20 11
58 21 13
58 22 16
58 23 16
58 24 11
58 25 17
58 26 12
58 27 20
58 28 4
58 29 13
58 30 4
58 31 4
58 32 14
58 33 10
58 34 16
58 35 7
58 36 18
58 37 20
58 38 14
58 39 13
58 40 7
58 41 6
58 42 3
58 43 5
58 44 15
58 45 16
58 46 14
58 47 16
58 48 2
58 49 7
58 50 9
58 51 12
58 52 10
58 53 15
58 54 11
58 55 2
58 56 18
58 57 14
59 0 19
59 1 2
59 2 5
59 3 16
59 4 7
59 5 5
59 6 1
59 7 3
59 8 10
59 9 9
59 10 8
59 11 15
59 12 5
59 13 3
59 14 1
59 15 10
59 16 19
59 17 3
59 18 17
59 19 17
59 20 16
59 21 16
59 22 6
59 23 18
59 24 17
59 25 11
59 26 7
59 27 9
59 28 1
59 29 13
59 30 3
59 31 17
59 32 20
59 33 12
59 34 5
59 35 20
59 36 15
59 37 12
59 38 12
59 39 1
59 40 5
59 41 9
59 42 20
59 43 10
59 44 19
59 45 19
59 46 1
59 47 1
59 48 7
59 49 9
59 50 19
59 51 13
59 52 4
59 53 13
59 54 6
59 55 14
59 56 1
59 57 8
59 58 20
60 0 13
60 1 11
60 2 14
60 3 2
60 4 8
60 5 2
60 6 7
60 7 14
60 8 2
60 9 16
60 10 12
60 11 4
60 12 20
60 13 11
60 14 15
60 15 15
60 16 3
60 17 1
60 18 1
60 19 17
60 20 19
60 21 1
60 22 5
60 23 8
60 24 6
60 25 12
60 26 2
60 27 13
60 28 13
60 29 8
60 30 11
60 31 8
60 32 18
60 33 9
60 34 18
60 35 9
60 36 1
60 37 19
60 38 18
60 39 18
60 40 18
60 41 16
60 42 3
60 43 15
60 44 18
60 45 8
60 46 3
60 47 16
60 48 7
60 49 5
60 50 9
60 51 14
60 52 13
60 53 11
60 54 19
60 55 6
60 56 12
60 57 1
60 58 20
60 59 16
61 0 13
61 1 5
61 2 10
61 3 15
61 4 10
61 5 1
61 6 4
61 7 7
61 8 5
61 9 8
61 10 16
61 11 9
61 12 17
61 13 14
61 14 16
61 15 8
61 16 16
61 17 1
61 18 4
61 19 1
61 20 16
61 21 13
61 22 19
61 23 6
61 24 12
61 25 14
61 26 9
61 27 17
61 28 8
61 29 10
61 30 7
61 31 6
61 32 20
61 33 11
61 34 3
61 35 16
61 36 18
61 37 4
61 38 2
61 39 7
61 40 6
61 41 3
61 42 12
61 43 4
61 44 11
61 45 10
61 46 20
61 47 14
61 48 8
61 49 16
61 50 5
61 51 20
61 52 3
61 53 20
61 54 9
61 55 6
61 56 2
61 57 10
61 58 5
61 59 4
61 60 10
62 0 6
62 1 15
62 2 16
62 3 13
62 4 8
62 5 13
62 6 12
62 7 12
62 8 19
62 9 17
62 10 17
62 11 13
62 12 2
62 13 2
62 14 11
62 15 17
62 16 5
62 17 20
62 18 16
62 19 15
62 20 8
62 21 15
62 22 6
62 23 5
62 24 16
62 25 6
62 26 5
62 27 11
62 28 13
62 29 14
62 30 2
62 31 5
62 32 3
62 33 3
62 34 12
62 35 2
62 36 18
62 37 19
62 38 4
62 39 9
62 40 5
62 41 9
62 42 15
62 43 16
62 44 7
62 45 9
62 46 8
62 47 16
62 48 7
62 49 9
62 50 9
62 51 16
62 52 16
62 53 5
62 54 5
62 55 11
62 56 11
62 57 2
62 58 18
62 59 16
62 60 5
62 61 2
63 0 9
63 1 3
63 2 11
63 3 8
63 4 6
63 5 13
63 6 13
63 7 10
63 8 6
63 9 16
63 10 8
63 11 20
63 12 5
63 13 14
63 14 15
63 15 7
63 16 12
63 17 3
63 18 9
63 19 2
63 20 11
63 21 8
63 22 19
63 23 11
63 24 16
63 25 16
63 26 15
63 27 3
63 28 4
63 29 20
63 30 10
63 31 16
63 32 20
63 33 10
63 34 8
63 35 2
63 36 7
63 37 13
63 38 10
63 39 16
63 40 16
63 41 12
63 42 3
63 43 16
63 44 7
63 45 18
63 46 8
63 47 2
63 48 17
63 49 2
63 50 2
63 51 5
63 52 13
63 53 8
63 54 5
63 55 1
63 56 18
63 57 12
63 58 5
63 59 8
63 60 14
63 61 18
63 62 4
64 0 9
64 1 3
64 2 4
64 3 19
64 4 19
64 5 18
64 6 11
64 7 3
64 8 9
64 9 14
64 10 10
64 11 15
64 12 6
64 13 12
64 14 10
64 15 12
64 16 20
64 17 20
64 18 18
64 19 5
64 20 15
64 21 16
64 22 18
64 23 7
64 24 15
64 25 6
64 26 7
64 27 4
64 28 16
64 29 6
64 30 2
64 31 11
64 32 2
64 33 8
64 34 2
64 35 1
64 36 17
64 37 7
64 38 2
64 39 16
64 40 2
64 41 8
64 42 4
64 43 5
64 44 12
64 45 13
64 46 9
64 47 3
64 48 5
64 49 1
64 50 11
64 51 19
64 52 5
64 53 3
64 54 6
64 55 14
64 56 8
64 57 2
64 58 11
64 59 8
64 60 7
64 61 19
64 62 20
64 63 17
65 0 9
65 1 1
65 2 2
65 3 5
65 4 20
65 5 20
65 6 10
65 7 16
65 8 17
65 9 13
65 10 9
65 11 11
65 12 8
65 13 3
65 14 14
65 15 6
65 16 3
65 17 14
65 18 6
65 19 4
65 20 8
65 21 13
65 22 13
65 23 7
65 24 14
65 25 13
65 26 15
65 27 5
65 28 2
65 29 5
65 30 3
65 31 20
65 32 17
65 33 19
65 34 6
65 35 20
65 36 2
65 37 16
65 38 12
65 39 10
65 40 6
65 41 4
65 42 6
65 43 12
65 44 2
65 45 2
65 46 9
65 47 7
65 48 9
65 49 16
65 50 15
65 51 7
65 52 15
65 53 10
65 54 12
65 55 7
65 56 10
65 57 17
65 58 18
65 59 3
65 60 15
65 61 2
65 62 5
65 63 4
65 64 11
66 0 1
66 1 5
66 2 15
66 3 10
66 4 16
66 5 18
66 6 12
66 7 16
66 8 4
66 9 2
66 10 11
66 11 3
66 12 13
66 13 1
66 14 3
66 15 5
66 16 7
66 17 17
66 18 18
66 19 5
66 20 4
66 21 13
66 22 15
66 23 16
66 24 3
66 25 9
66 26 9
66 27 5
66 28 7
66 29 9
66 30 13
66 31 18
66 32 5
66 33 18
66 34 5
66 35 10
66 36 1
66 37 19
66 38 18
66 39 9
66 40 2
66 41 17
66 42 18
66 43 1
66 44 17
66 45 7
66 46 18
66 47 7
66 48 18
66 49 2
66 50 2
66 51 4
66 52 14
66 53 7
66 54 20
66 55 1
66 56 17
66 57 8
66 58 15
66 59 7
66 60 12
66 61 8
66 62 5
66 63 7
66 64 15
66 65 18
67 0 8
67 1 3
67 2 2
67 3 5
67 4 3
67 5 6
67 6 4
67 7 5
67 8 14
67 9 12
67 10 3
67 11 17
67 12 15
67 13 4
67 14 7
67 15 19
67 16 12
67 17 8
67 18 10
67 19 6
67 20 13
67 21 8
67 22 5
67 23 14
67 24 18
67 25 15
67 26 11
67 27 9
67 28 2
67 29 16
67 30 18
67 31 17
67 32 17
67 33 17
67 34 14
67 35 14
67 36 10
67 37 15
67 38 9
67 39 16
67 40 11
67 41 19
67 42 2
67 43 16
67 44 12
67 45 8
67 46 9
67 47 11
67 48 5
67 49 8
67 50 2
67 51 9
67 52 2
67 53 11
67 54 14
67 55 1
67 56 7
67 57 18
67 58 1
67 59 16
67 60 8
67 61 12
67 62 17
67 63 5
67 64 14
67 65 1
67 66 10
68 0 7
68 1 5
68 2 4
68 3 16
68 4 4
68 5 2
68 6 17
68 7 1
68 8 7
68 9 8
68 10 9
68 11 13
68 12 5
68 13 10
68 14 11
68 15 14
68 16 5
68 17 4
68 18 4
68 19 16
68 20 9
68 21 20
68 22 12
68 23 8
68 24 12
68 25 17
68 26 17
68 27 6
68 28 14
68 29 19
68 30 17
68 31 12
68 32 19
68 33 7
68 34 16
68 35 3
68 36 3
68 37 14
68 38 17
68 39 16
68 40 16
68 41 6
68 42 4
68 43 13
68 44 12
68 45 5
68 46 7
68 47 14
68 48 16
68 49 16
68 50 20
68 51 14
68 52 2
68 53 19
68 54 18
68 55 4
68 56 4
68 57 7
68 58 7
68 59 16
68 60 4
68 61 12
68 62 17
68 63 7
68 64 20
68 65 6
68 66 3
68 67 20
69 0 16
69 1 3
69 2 6
69 3 3
69 4 12
69 5 17
69 6 18
69 7 20
69 8 10
69 9 11
69 10 6
69 11 15
69 12 18
69 13 12
69 14 16
69 15 19
69 16 11
69 17 15
69 18 5
69 19 20
69 20 7
69 21 18
69 22 1
69 23 17
69 24 3
69 25 15
69 26 8
69 27 17
69 28 14
69 29 14
69 30 13
69 31 15
69 32 16
69 33 4
69 34 12
69 35 15
69 36 14
69 37 19
69 38 5
69 39 17
69 40 9
69 41 19
69 42 8
69 43 18
69 44 6
69 45 14
69 46 17
69 47 20
69 48 20
69 49 12
69 50 16
69 51 18
69 52 3
69 53 20
69 54 19
69 55 4
69 56 13
69 57 15
69 58 14
69 59 14
69 60 7
69 61 16
69 62 13
69 63 18
69 64 8
69 65 8
69 66 8
69 67 11
69 68 9
